Begin cnf wff
p cnf 159 893
 -1 -4 0
 -1 -7 0
 -1 -2 0
 -1 -6 0
 -2 -8 0
 -2 -6 0
 -2 -5 0
 -104 5 0
 -105 6 0
 -106 1 0
 -107 2 0
 -108 3 0
 -109 4 0
 -110 2 0
 -111 7 0
 -112 8 0
 -9 -13 0
 -9 -17 0
 -9 -11 0
 -9 -16 0
 -9 -19 0
 -9 -10 0
 -9 -21 0
 -9 -20 0
 -9 -24 0
 -9 -22 0
 -9 -23 0
 -9 -15 0
 -10 -19 0
 -10 -21 0
 -10 -20 0
 -10 -24 0
 -10 -23 0
 -10 -18 0
 -10 -11 0
 -10 -16 0
 -10 -13 0
 -10 -17 0
 -10 -22 0
 -10 -15 0
 -11 -18 0
 -11 -20 0
 -11 -19 0
 -11 -24 0
 -11 -16 0
 -11 -23 0
 -11 -14 0
 -11 -21 0
 -11 -22 0
 -11 -15 0
 -13 -21 0
 -13 -19 0
 -14 -24 0
 -14 -20 0
 -14 -23 0
 -14 -22 0
 -14 -15 0
 -15 -23 0
 -15 -21 0
 -15 -19 0
 -15 -16 0
 -15 -18 0
 -16 -20 0
 -16 -19 0
 -16 -24 0
 -16 -23 0
 -16 -21 0
 -16 -22 0
 -17 -24 0
 -17 -21 0
 -17 -19 0
 -18 -22 0
 -18 -20 0
 -18 -24 0
 -18 -23 0
 -19 -20 0
 -19 -21 0
 -19 -22 0
 -19 -23 0
 -19 -24 0
 -20 -24 0
 -20 -23 0
 -20 -22 0
 -20 -21 0
 -21 -24 0
 -21 -23 0
 -21 -22 0
 -22 -24 0
 -22 -23 0
 -23 -24 0
 -9 105 0
 -9 109 0
 -9 111 0
 -10 112 0
 -10 106 0
 -11 105 0
 -11 112 0
 -11 104 0
 -12 108 0
 -13 109 0
 -14 104 0
 -15 110 0
 -16 105 0
 -17 111 0
 -18 112 0
 -19 106 0
 -20 107 0
 -21 106 0
 -22 107 0
 -23 110 0
 -23 107 0
 -24 111 0
 -24 107 0
 -113 14 23 0
 -114 24 0
 -115 16 10 23 24 19 20 0
 -116 10 0
 -117 21 9 0
 -118 22 11 0
 -119 12 0
 -120 13 19 0
 -121 20 0
 -122 15 11 0
 -123 17 10 19 0
 -124 18 23 24 20 0
 -25 -31 0
 -25 -35 0
 -25 -27 0
 -25 -26 0
 -25 -30 0
 -25 -36 0
 -25 -29 0
 -25 -34 0
 -25 -40 0
 -25 -45 0
 -25 -42 0
 -25 -47 0
 -25 -46 0
 -25 -44 0
 -25 -41 0
 -25 -28 0
 -25 -43 0
 -26 -32 0
 -26 -38 0
 -26 -27 0
 -26 -29 0
 -26 -36 0
 -26 -30 0
 -26 -37 0
 -26 -40 0
 -26 -45 0
 -26 -42 0
 -26 -47 0
 -26 -46 0
 -26 -44 0
 -26 -41 0
 -26 -28 0
 -26 -43 0
 -27 -33 0
 -27 -39 0
 -27 -36 0
 -27 -30 0
 -27 -37 0
 -27 -40 0
 -27 -45 0
 -27 -29 0
 -27 -34 0
 -27 -42 0
 -27 -47 0
 -27 -46 0
 -27 -44 0
 -27 -41 0
 -27 -28 0
 -27 -43 0
 -28 -41 0
 -28 -43 0
 -28 -42 0
 -28 -47 0
 -28 -46 0
 -28 -39 0
 -28 -37 0
 -28 -30 0
 -28 -29 0
 -28 -36 0
 -28 -38 0
 -28 -35 0
 -28 -32 0
 -28 -33 0
 -28 -40 0
 -28 -45 0
 -28 -44 0
 -29 -39 0
 -29 -42 0
 -29 -41 0
 -29 -47 0
 -29 -40 0
 -29 -30 0
 -29 -36 0
 -29 -46 0
 -29 -34 0
 -29 -35 0
 -29 -37 0
 -29 -33 0
 -29 -45 0
 -29 -44 0
 -29 -43 0
 -30 -39 0
 -30 -42 0
 -30 -41 0
 -30 -46 0
 -30 -40 0
 -30 -36 0
 -30 -47 0
 -30 -37 0
 -30 -34 0
 -30 -33 0
 -30 -38 0
 -30 -45 0
 -30 -44 0
 -30 -43 0
 -32 -45 0
 -32 -43 0
 -32 -40 0
 -32 -41 0
 -33 -47 0
 -33 -46 0
 -33 -45 0
 -33 -44 0
 -33 -43 0
 -33 -41 0
 -33 -40 0
 -33 -37 0
 -33 -34 0
 -33 -42 0
 -34 -47 0
 -34 -42 0
 -34 -46 0
 -34 -35 0
 -34 -44 0
 -34 -37 0
 -35 -46 0
 -35 -45 0
 -35 -43 0
 -35 -41 0
 -35 -40 0
 -36 -40 0
 -36 -42 0
 -36 -41 0
 -36 -47 0
 -36 -46 0
 -36 -44 0
 -36 -43 0
 -37 -46 0
 -37 -42 0
 -37 -41 0
 -37 -40 0
 -37 -47 0
 -37 -45 0
 -37 -43 0
 -37 -44 0
 -37 -38 0
 -38 -47 0
 -38 -43 0
 -38 -40 0
 -38 -41 0
 -39 -45 0
 -39 -44 0
 -39 -42 0
 -39 -47 0
 -39 -46 0
 -39 -40 0
 -40 -42 0
 -40 -41 0
 -40 -47 0
 -40 -46 0
 -40 -45 0
 -40 -44 0
 -40 -43 0
 -41 -42 0
 -41 -43 0
 -41 -45 0
 -41 -47 0
 -41 -46 0
 -41 -44 0
 -42 -47 0
 -42 -46 0
 -42 -44 0
 -42 -45 0
 -42 -43 0
 -43 -47 0
 -43 -46 0
 -43 -45 0
 -43 -44 0
 -44 -47 0
 -44 -46 0
 -44 -45 0
 -45 -47 0
 -45 -46 0
 -46 -47 0
 -25 115 0
 -25 119 0
 -25 122 0
 -26 115 0
 -26 120 0
 -26 123 0
 -27 115 0
 -27 121 0
 -27 124 0
 -28 124 0
 -28 117 0
 -29 115 0
 -29 124 0
 -29 113 0
 -30 115 0
 -30 124 0
 -30 114 0
 -31 119 0
 -32 120 0
 -33 121 0
 -34 113 0
 -35 122 0
 -36 115 0
 -37 114 0
 -38 123 0
 -39 124 0
 -40 115 0
 -40 123 0
 -40 116 0
 -41 117 0
 -42 118 0
 -43 117 0
 -44 118 0
 -45 116 0
 -46 122 0
 -46 118 0
 -47 123 0
 -47 118 0
 -125 34 46 0
 -126 37 47 0
 -127 36 28 46 47 41 42 0
 -128 25 0
 -129 43 40 26 0
 -130 45 28 0
 -131 44 29 30 27 0
 -132 31 0
 -133 32 41 0
 -134 33 42 0
 -135 35 29 0
 -136 38 30 28 41 0
 -137 39 40 46 47 42 0
 -48 -55 0
 -48 -58 0
 -48 -50 0
 -48 -49 0
 -48 -54 0
 -48 -59 0
 -48 -53 0
 -48 -65 0
 -48 -71 0
 -48 -66 0
 -48 -52 0
 -48 -51 0
 -48 -69 0
 -48 -67 0
 -48 -73 0
 -48 -72 0
 -48 -70 0
 -48 -64 0
 -48 -61 0
 -48 -57 0
 -48 -68 0
 -49 -56 0
 -49 -62 0
 -49 -50 0
 -49 -53 0
 -49 -59 0
 -49 -54 0
 -49 -60 0
 -49 -65 0
 -49 -71 0
 -49 -66 0
 -49 -52 0
 -49 -51 0
 -49 -69 0
 -49 -67 0
 -49 -73 0
 -49 -72 0
 -49 -70 0
 -49 -64 0
 -49 -61 0
 -49 -57 0
 -49 -68 0
 -50 -63 0
 -50 -59 0
 -50 -53 0
 -50 -54 0
 -50 -60 0
 -50 -65 0
 -50 -71 0
 -50 -66 0
 -50 -52 0
 -50 -51 0
 -50 -69 0
 -50 -67 0
 -50 -73 0
 -50 -72 0
 -50 -70 0
 -50 -64 0
 -50 -61 0
 -50 -57 0
 -50 -68 0
 -51 -73 0
 -51 -67 0
 -51 -66 0
 -51 -52 0
 -51 -69 0
 -51 -64 0
 -51 -72 0
 -51 -58 0
 -51 -60 0
 -51 -54 0
 -51 -59 0
 -51 -70 0
 -51 -56 0
 -51 -62 0
 -51 -53 0
 -51 -61 0
 -51 -57 0
 -51 -68 0
 -51 -65 0
 -51 -71 0
 -52 -64 0
 -52 -66 0
 -52 -69 0
 -52 -67 0
 -52 -73 0
 -52 -72 0
 -52 -63 0
 -52 -60 0
 -52 -54 0
 -52 -53 0
 -52 -59 0
 -52 -61 0
 -52 -68 0
 -52 -56 0
 -52 -57 0
 -52 -62 0
 -52 -65 0
 -52 -71 0
 -52 -70 0
 -53 -63 0
 -53 -67 0
 -53 -66 0
 -53 -64 0
 -53 -73 0
 -53 -61 0
 -53 -57 0
 -53 -65 0
 -53 -54 0
 -53 -59 0
 -53 -72 0
 -53 -60 0
 -53 -58 0
 -53 -71 0
 -53 -69 0
 -53 -70 0
 -53 -68 0
 -54 -63 0
 -54 -67 0
 -54 -66 0
 -54 -64 0
 -54 -72 0
 -54 -61 0
 -54 -57 0
 -54 -65 0
 -54 -59 0
 -54 -73 0
 -54 -60 0
 -54 -62 0
 -54 -71 0
 -54 -69 0
 -54 -70 0
 -54 -68 0
 -55 -68 0
 -55 -61 0
 -55 -57 0
 -55 -64 0
 -56 -71 0
 -56 -69 0
 -56 -65 0
 -56 -66 0
 -57 -72 0
 -57 -67 0
 -57 -64 0
 -57 -61 0
 -57 -68 0
 -57 -66 0
 -57 -73 0
 -57 -62 0
 -57 -59 0
 -57 -65 0
 -57 -71 0
 -57 -70 0
 -57 -58 0
 -57 -60 0
 -57 -69 0
 -58 -72 0
 -58 -71 0
 -58 -68 0
 -58 -65 0
 -58 -64 0
 -58 -61 0
 -59 -65 0
 -59 -67 0
 -59 -66 0
 -59 -64 0
 -59 -73 0
 -59 -72 0
 -59 -61 0
 -59 -69 0
 -59 -70 0
 -59 -68 0
 -60 -72 0
 -60 -67 0
 -60 -66 0
 -60 -65 0
 -60 -73 0
 -60 -62 0
 -60 -70 0
 -60 -69 0
 -60 -71 0
 -61 -66 0
 -61 -64 0
 -61 -68 0
 -61 -67 0
 -61 -73 0
 -61 -72 0
 -61 -63 0
 -61 -69 0
 -61 -65 0
 -61 -71 0
 -61 -70 0
 -62 -73 0
 -62 -69 0
 -62 -65 0
 -62 -66 0
 -63 -71 0
 -63 -70 0
 -63 -67 0
 -63 -73 0
 -63 -72 0
 -63 -65 0
 -64 -67 0
 -64 -66 0
 -64 -68 0
 -64 -69 0
 -64 -65 0
 -64 -71 0
 -64 -73 0
 -64 -70 0
 -64 -72 0
 -65 -67 0
 -65 -66 0
 -65 -73 0
 -65 -72 0
 -65 -71 0
 -65 -69 0
 -65 -70 0
 -65 -68 0
 -66 -67 0
 -66 -69 0
 -66 -68 0
 -66 -72 0
 -66 -70 0
 -66 -73 0
 -66 -71 0
 -67 -73 0
 -67 -72 0
 -67 -70 0
 -67 -68 0
 -67 -69 0
 -67 -71 0
 -68 -73 0
 -68 -72 0
 -68 -69 0
 -68 -71 0
 -68 -70 0
 -69 -73 0
 -69 -72 0
 -69 -70 0
 -69 -71 0
 -70 -73 0
 -70 -72 0
 -70 -71 0
 -71 -73 0
 -71 -72 0
 -72 -73 0
 -48 127 0
 -48 132 0
 -48 135 0
 -49 127 0
 -49 133 0
 -49 136 0
 -50 127 0
 -50 134 0
 -50 137 0
 -51 135 0
 -51 129 0
 -52 137 0
 -52 129 0
 -53 127 0
 -53 137 0
 -53 125 0
 -54 127 0
 -54 137 0
 -54 126 0
 -55 132 0
 -56 133 0
 -57 136 0
 -57 128 0
 -58 135 0
 -59 127 0
 -60 126 0
 -61 137 0
 -61 128 0
 -62 136 0
 -63 137 0
 -64 128 0
 -65 127 0
 -65 136 0
 -65 130 0
 -66 129 0
 -67 131 0
 -68 128 0
 -69 129 0
 -70 131 0
 -71 130 0
 -72 135 0
 -72 131 0
 -73 136 0
 -73 131 0
 -138 60 73 0
 -139 59 57 61 51 52 72 73 64 66 67 0
 -140 51 0
 -141 68 48 0
 -142 71 52 0
 -143 69 65 49 0
 -144 70 53 54 50 0
 -145 55 64 0
 -146 56 66 0
 -147 57 0
 -148 61 0
 -149 58 53 57 61 64 0
 -150 62 54 51 52 66 0
 -151 63 65 72 73 67 0
 -74 -93 0
 -74 -92 0
 -74 -91 0
 -74 -90 0
 -74 -89 0
 -74 -88 0
 -74 -87 0
 -74 -86 0
 -74 -85 0
 -74 -84 0
 -74 -82 0
 -74 -79 0
 -74 -78 0
 -74 -77 0
 -74 -76 0
 -74 -75 0
 -74 -80 0
 -74 -81 0
 -75 -76 0
 -75 -84 0
 -75 -79 0
 -75 -82 0
 -75 -90 0
 -75 -91 0
 -75 -80 0
 -75 -87 0
 -75 -86 0
 -75 -93 0
 -75 -92 0
 -75 -85 0
 -75 -78 0
 -75 -77 0
 -75 -88 0
 -76 -81 0
 -76 -91 0
 -76 -79 0
 -76 -90 0
 -76 -82 0
 -76 -84 0
 -76 -89 0
 -76 -80 0
 -76 -87 0
 -76 -86 0
 -76 -93 0
 -76 -92 0
 -76 -85 0
 -76 -78 0
 -76 -77 0
 -76 -88 0
 -77 -93 0
 -77 -86 0
 -77 -85 0
 -77 -78 0
 -77 -88 0
 -77 -92 0
 -77 -79 0
 -77 -89 0
 -77 -84 0
 -77 -81 0
 -77 -90 0
 -77 -91 0
 -77 -82 0
 -77 -80 0
 -77 -87 0
 -78 -85 0
 -78 -88 0
 -78 -86 0
 -78 -93 0
 -78 -92 0
 -78 -83 0
 -78 -79 0
 -78 -87 0
 -78 -80 0
 -78 -82 0
 -78 -81 0
 -78 -90 0
 -78 -84 0
 -78 -89 0
 -78 -91 0
 -79 -83 0
 -79 -86 0
 -79 -85 0
 -79 -92 0
 -79 -80 0
 -79 -91 0
 -79 -90 0
 -79 -84 0
 -79 -82 0
 -79 -93 0
 -79 -81 0
 -79 -89 0
 -79 -87 0
 -79 -88 0
 -80 -92 0
 -80 -86 0
 -80 -87 0
 -80 -85 0
 -80 -93 0
 -80 -81 0
 -80 -82 0
 -80 -84 0
 -80 -89 0
 -80 -91 0
 -80 -88 0
 -80 -90 0
 -81 -93 0
 -81 -88 0
 -81 -84 0
 -81 -82 0
 -81 -85 0
 -81 -90 0
 -82 -86 0
 -82 -85 0
 -82 -93 0
 -82 -92 0
 -82 -91 0
 -82 -90 0
 -82 -84 0
 -82 -89 0
 -82 -87 0
 -82 -88 0
 -83 -89 0
 -83 -86 0
 -83 -93 0
 -83 -92 0
 -83 -91 0
 -83 -84 0
 -84 -86 0
 -84 -85 0
 -84 -93 0
 -84 -92 0
 -84 -91 0
 -84 -90 0
 -84 -89 0
 -84 -87 0
 -84 -88 0
 -85 -86 0
 -85 -88 0
 -85 -87 0
 -85 -89 0
 -85 -93 0
 -85 -92 0
 -85 -90 0
 -85 -91 0
 -86 -93 0
 -86 -92 0
 -86 -87 0
 -86 -89 0
 -86 -88 0
 -86 -90 0
 -86 -91 0
 -87 -93 0
 -87 -92 0
 -87 -91 0
 -87 -90 0
 -87 -89 0
 -87 -88 0
 -88 -93 0
 -88 -92 0
 -88 -91 0
 -88 -90 0
 -88 -89 0
 -89 -93 0
 -89 -92 0
 -89 -91 0
 -89 -90 0
 -90 -93 0
 -90 -92 0
 -90 -91 0
 -91 -93 0
 -91 -92 0
 -92 -93 0
 -74 147 0
 -75 139 0
 -75 145 0
 -75 149 0
 -76 139 0
 -76 146 0
 -76 150 0
 -77 149 0
 -77 143 0
 -78 151 0
 -78 143 0
 -79 139 0
 -79 151 0
 -79 138 0
 -80 150 0
 -80 141 0
 -81 150 0
 -82 139 0
 -82 150 0
 -82 140 0
 -83 151 0
 -84 139 0
 -84 150 0
 -84 142 0
 -85 143 0
 -86 144 0
 -87 141 0
 -88 143 0
 -89 142 0
 -90 139 0
 -90 149 0
 -90 147 0
 -91 139 0
 -91 149 0
 -91 148 0
 -92 149 0
 -92 144 0
 -93 150 0
 -93 144 0
 -152 87 90 91 75 0
 -153 88 82 84 76 0
 -154 89 78 0
 -155 74 80 0
 -156 81 79 90 77 78 85 0
 -157 83 84 91 92 93 86 0
 -94 -97 0
 -94 -95 0
 -94 -96 0
 -95 -96 0
 -95 -97 0
 -94 155 0
 -95 157 0
 -95 153 0
 -96 156 0
 -96 152 0
 -97 154 0
 97 95 0
 94 96 0
 98 0
 99 0
 100 0
 101 0
 102 0
 103 0
 158 0
 159 0
End cnf wff
